Version identifier: 12.10.0.0 | 2019-11-26 | 843d4de
CPXPARAM_WorkMem                                 28672
Tried aggregator 2 times.
Aggregator did 60 substitutions.
Reduced MIP has 203 rows, 240 columns, and 906 nonzeros.
Reduced MIP has 240 binaries, 0 generals, 0 SOSs, and 0 indicators.
Presolve time = 0,00 sec. (0,88 ticks)
Found incumbent of value 180,000000 after 0,00 sec. (1,44 ticks)
Probing time = 0,00 sec. (0,31 ticks)
Tried aggregator 1 time.
Detecting symmetries...
MIP Presolve eliminated 48 rows and 0 columns.
MIP Presolve added 96 rows and 0 columns.
Reduced MIP has 251 rows, 240 columns, and 954 nonzeros.
Reduced MIP has 240 binaries, 0 generals, 0 SOSs, and 0 indicators.
Presolve time = 0,00 sec. (1,18 ticks)
Probing time = 0,00 sec. (0,30 ticks)
Clique table members: 626.
MIP emphasis: balance optimality and feasibility.
MIP search method: dynamic search.
Parallel mode: deterministic, using up to 16 threads.
Root relaxation solution time = 0,00 sec. (0,93 ticks)

        Nodes                                         Cuts/
   Node  Left     Objective  IInf  Best Integer    Best Bound    ItCnt     Gap

*     0+    0                          180,0000        0,0000           100,00%
*     0+    0                          119,0000        0,0000           100,00%
      0     0       60,0000   166      119,0000       60,0000       99   49,58%
*     0+    0                          115,0000       60,0000            47,83%
      0     0       60,0000   166      115,0000     Cuts: 162      159   47,83%
      0     0       60,0000   166      115,0000     Cuts: 117      201   47,83%
      0     0       60,6119   166      115,0000     Cuts: 162      274   47,29%
*     0+    0                          113,0000       60,6119            46,36%
      0     0       60,7699   166      113,0000       Cuts: 5      292   46,22%
      0     0       60,8108   166      113,0000      Fract: 1      298   46,19%
      0     0       64,8103   166      113,0000     Cuts: 150      389   42,65%
      0     0       64,9050   166      113,0000       Cuts: 8      398   42,56%
*     0+    0                          107,0000       64,9050            39,34%
      0     2       64,9050   230      107,0000       70,9944      398   33,65%
Elapsed time = 0,17 sec. (90,02 ticks, tree = 0,02 MB, solutions = 5)
*   484+  277                          106,0000       75,7983            28,49%
   2087  1235       94,8397   161      106,0000       84,0333    38778   20,72%

Performing restart 1

Repeating presolve.
Tried aggregator 2 times.
MIP Presolve eliminated 15 rows and 10 columns.
MIP Presolve added 8 rows and 0 columns.
MIP Presolve modified 12 coefficients.
Aggregator did 2 substitutions.
Reduced MIP has 242 rows, 228 columns, and 897 nonzeros.
Reduced MIP has 228 binaries, 0 generals, 0 SOSs, and 0 indicators.
Presolve time = 0,00 sec. (1,11 ticks)
Tried aggregator 1 time.
Reduced MIP has 242 rows, 228 columns, and 897 nonzeros.
Reduced MIP has 228 binaries, 0 generals, 0 SOSs, and 0 indicators.
Presolve time = 0,00 sec. (0,73 ticks)
Represolve time = 0,01 sec. (6,49 ticks)
   4730     0       66,1381   228      106,0000       Cuts: 8   111619   15,56%
   4730     0       66,7313   228      106,0000       Cuts: 8   111688   15,56%
   4730     0       67,1002   228      106,0000       Cuts: 8   111740   15,56%
   4730     0       67,3837   228      106,0000      Cuts: 13   111787   15,56%
   4730     2       67,3837   227      106,0000       89,5012   111787   15,56%
   5745   597      100,3251   102      106,0000       89,5012   140229   15,56%
   9591  3315      103,9745    98      106,0000       89,5012   234365   15,56%

Performing restart 2

Repeating presolve.
Tried aggregator 1 time.
Reduced MIP has 242 rows, 228 columns, and 897 nonzeros.
Reduced MIP has 228 binaries, 0 generals, 0 SOSs, and 0 indicators.
Presolve time = 0,00 sec. (0,53 ticks)
Tried aggregator 1 time.
Reduced MIP has 242 rows, 228 columns, and 897 nonzeros.
Reduced MIP has 228 binaries, 0 generals, 0 SOSs, and 0 indicators.
Presolve time = 0,00 sec. (0,73 ticks)
Represolve time = 0,02 sec. (14,94 ticks)
  10967     0       67,8604   227      106,0000       Cuts: 8   304586   15,56%
  10967     0       67,8835   227      106,0000   ZeroHalf: 3   304605   15,56%
  10967     0       68,0650   227      106,0000       Cuts: 5   304660   15,56%
  10967     0       68,2522   227      106,0000       Cuts: 5   304704   15,56%
  10967     0       68,4509   227      106,0000       Cuts: 7   304757   15,56%
  10967     0       68,5583   227      106,0000       Cuts: 2   304819   15,56%
  10967     2       68,5583   227      106,0000       89,5012   304819   15,56%
  15119  2497       99,0920   136      106,0000       90,1947   385131   14,91%
  19392  4095        cutoff            106,0000       95,1333   469880   10,25%
  23557  4449      104,5742    85      106,0000       98,8579   571522    6,74%
* 28560   514      integral     0      105,0000      104,0011   663826    0,95%

Clique cuts applied:  49
Cover cuts applied:  339
Flow cuts applied:  5
Mixed integer rounding cuts applied:  23
Zero-half cuts applied:  2
Lift and project cuts applied:  7
Gomory fractional cuts applied:  21

Root node processing (before b&c):
  Real time             =    0,16 sec. (89,64 ticks)
Parallel b&c, 16 threads:
  Real time             =    3,29 sec. (2486,72 ticks)
  Sync time (average)   =    0,87 sec.
  Wait time (average)   =    0,01 sec.
                          ------------
Total (root+branch&cut) =    3,45 sec. (2576,36 ticks)
